<instance format="XCSP3" type="WCSP">
  <variables>
    <var id="lucy"> 1..3 </var>
    <var id="mary"> 1..3 </var>
    <var id="paul"> 1..3 </var>
   </variables>
  <constraints>
    <allDifferent> lucy mary paul </allDifferent>
    <intension type="soft" violationCost="3"> 
      eq(lucy,sub(mary,1)) 
    </intension>
    <intension type="soft" violationCost="2"> 
      eq(paul,add(lucy,1)) 
    </intension>
  </constraints>
</instance>
